generated by phonopy
   1.0
     0.0000000000000000    3.2851966799999985    3.2851966799999985
     3.2851966799999985    0.0000000000000000    3.2851966799999985
     3.2851966799999985    3.2851966799999985    0.0000000000000000
Te Pb
   1    1
Direct
  0.5000000000000000  0.5000000000000000  0.5000000000000000
  0.0000000000000000  0.0000000000000000  0.0000000000000000
