250
Time=0.00000000 pbc="T T T" Lattice="0 16.425979999999999 16.425979999999999 16.425979999999999 0 16.425979999999999 16.425979999999999 16.425979999999999 0" energy=-930.86304712295532 virial="272.01058072768575 1.094106528958986 -0.092596646658954729 1.094106528958986 262.64536396918055 0.086048213809189811 -0.092596646658954729 0.086048213809189811 272.83081363259947" stress="0.030690031908806096 0.0001235195535562209 -1.0398635841257875e-05 0.0001235195535562209 0.029633411953285203 9.3972910393858997e-06 -1.0398635841257875e-05 9.3972910393858997e-06 0.030782414321354545" Properties=species:S:1:pos:R:3:forces:R:3
Te 3.2716189999999998 3.0938160000000003 3.3547220000000002 0.4364136591099772 -0.030937146877327848 0.025504687124910941
Te 3.7261190000000002 6.5249110000000003 6.8534889999999997 -1.7961617163746268 -0.36176953464951112 -0.40830351302793133
Te 3.062335 9.854356000000001 9.655031000000001 0.92821864102597829 0.089770898018059597 -0.019404799209269186
Te 3.1132530000000003 13.23199 13.040230000000001 0.34116048787109321 0.30922810193851547 -0.5297933233537151
Te 3.1519380000000008 16.457460000000001 16.584530000000001 0.38844371107916231 -0.31946452702868555 1.1098875597822371
Te 6.6159699999999999 3.406539 6.5634800000000002 -0.48520506812445774 -0.31930167114398955 -0.10624701060538655
Te 6.8184190000000013 6.3967749999999999 9.4468980000000009 -0.16587220343490117 0.35730823767426045 1.2794491227541585
Te 6.5893600000000001 9.7508870000000041 13.120290000000004 -0.67062525392384487 -0.19178573014255562 -0.19235175837900442
Te 6.5091810000000025 12.90718 16.089600000000001 -0.086121739851023449 0.12875753251137212 0.51186474874702981
Te 6.7954590000000001 16.016390000000001 20.017959999999999 -0.53942923262025033 0.70571939878573176 -0.3966518016277405
Te 9.7995780000000003 3.2136849999999995 9.695748 -0.26581346887542168 0.28964592674535794 0.62129973051833076
Te 10.254480000000001 6.7464730000000026 13.232860000000002 -0.29227114800391973 -0.66744812482454563 -0.21271551248048581
Te 10.060309999999999 10.00271 16.2163 -0.272389261042008 -0.85241978402211771 0.64765782116660375
Te 10.085390000000004 13.253180000000004 19.509650000000008 -0.32591425810096553 -0.30843790434659013 0.6795006708434812
Te 9.8405290000000019 16.498819999999995 22.827110000000001 0.10709653198409796 -0.12968591152821318 0.31292207938804495
Te 12.92435 3.2146459999999997 13.18038 0.53982305131148678 0.60167015762956311 -0.41583783019706289
Te 13.652540000000004 6.8085840000000015 16.380369999999999 -0.70229942762011888 -0.24742721553911906 0.14428378904312922
Te 13.19434 9.883289999999997 19.986440000000005 -0.62603086911121864 -0.11391357767934096 -0.38540723634287133
Te 13.083890000000004 13.272100000000004 23.07105 0.48886080004160704 0.027656986516831239 -0.006058501473034994
Te 12.940470000000001 16.238880000000002 26.645109999999999 0.34894374769282877 0.24927504073480122 -1.2633038330131967
Te 16.503850000000007 3.4843170000000008 16.891539999999999 0.22793569463937047 -0.23154371186205935 -1.3142915746918788
Te 16.426659999999998 6.3642389999999995 19.885280000000002 0.022760916471725068 0.69786372261751239 0.42824633106070564
Te 16.34348 10.029249999999999 22.965520000000001 0.24087740300171845 -0.25823671183889019 -0.59897199207807716
Te 16.665700000000001 13.239549999999999 26.682320000000001 -0.61334143534804753 -0.16922481658366451 -0.67398340478848695
Te 16.320709999999998 16.420750000000002 29.419699999999999 0.12502977654582992 -0.15029303663658311 1.316453742326587
Te 6.6539929999999998 6.2003079999999997 3.3707400000000001 -0.16025757808745311 0.46261240104985291 -0.52152087577746897
Te 6.7152920000000007 9.8659420000000004 6.4586050000000013 -0.25787002389188274 0.25896570966631316 0.31232294217534218
Te 6.5227930000000018 13.166589999999998 9.7143139999999999 0.11729688827472273 0.050122286163968965 0.10214054802690953
Te 6.3765280000000004 16.382400000000001 13.20978 0.085078640615392942 0.076026605265724356 -0.29579220469577194
Te 7.0164439999999999 19.502510000000008 16.40108 -1.3396266830725705 0.021065735461152535 0.17101996799665642
Te 9.8430240000000015 6.4789010000000005 6.8153340000000018 0.36299758498893464 -0.17036999753868542 -0.49708392659949041
Te 10.09985 9.9367260000000002 9.9320419999999991 -0.78884356757703245 -0.27401182423128034 0.43293544927473704
Te 9.8333130000000022 13.132199999999997 13.307610000000002 -0.047587534518243046 -0.025316825537629484 -0.90857532528752927
Te 9.7656759999999991 16.286360000000002 16.250859999999999 -0.44403753577705629 0.17855714119046695 1.2983072888609968
Te 10.14753 19.404949999999999 19.822980000000001 -0.88278462817652326 1.6585572563380993 0.020663913259340916
Te 13.034179999999999 6.3649019999999998 10.006729999999997 0.43840951245783799 0.089280746850022297 -0.28643194020128249
Te 12.841950000000002 9.8060690000000044 13.013000000000003 0.39534884501819079 0.36570077420583402 0.21003277959289335
Te 12.831860000000001 13.102969999999999 16.072980000000001 1.3976170005935273 0.29029455441650498 0.23114421662103268
Te 13.06883 16.510570000000001 19.53538 0.22744136003075255 -0.58986928933609306 1.0674845882253976
Te 13.305870000000001 20.001139999999999 23.132370000000002 0.0069312133485599503 -1.3986282736665316 0.10481407202684068
Te 16.552600000000002 6.5782579999999999 12.95772 0.50578583974166236 -0.72626241992560381 0.30699650113640864
Te 16.45025 9.7814720000000008 16.461649999999999 -0.011166278569589849 0.020923723043665632 0.21716800169815542
Te 16.178050000000002 13.617430000000002 19.712220000000002 0.52053006391406598 -1.0943106822596746 0.026848103765587439
Te 16.56738 16.199830000000006 23.10549 -0.2274102395222144 1.0684131664202141 -0.064889783422017899
Te 16.204640000000001 19.828770000000002 26.28801 0.28615211126549411 0.18257710449717024 0.46005758922115092
Te 19.855170000000005 6.6086170000000006 16.384470000000004 0.34418625653562174 -0.27870242174401483 0.22017768032264939
Te 20.017870000000006 9.7139690000000023 19.505100000000002 -1.0806971490710566 0.15344349304086791 0.3808599672111086
Te 19.522839999999999 12.790599999999998 22.91347 0.41133624378562672 0.42228228247313382 -0.0081546766668907367
Te 19.685569999999998 16.33484 26.328610000000008 -0.16187421466005958 0.55149392869770963 -0.2035502537364664
Te 19.600169999999999 19.94678 29.521570000000008 0.10914160511106274 -0.85627336163724976 0.20745595206190615
Te 9.7521020000000007 9.631653 3.2161900000000001 0.43907968938947306 -0.11450764921755763 0.21039225742288181
Te 10.17266 13.127129999999999 6.2981290000000012 -0.82321343281125792 0.13442370005395787 0.97094876019582443
Te 9.6475690000000007 16.192209999999999 9.8459380000000003 0.44024324420263383 1.0216313204000471 -0.15587822817701635
Te 9.7391649999999998 19.622420000000009 12.963100000000001 0.12218644331551332 0.85526704755255878 0.015136969343700457
Te 9.6680869999999999 22.734050000000007 16.223600000000001 0.98860803917614248 0.8942829209518095 0.05156536483355012
Te 13.150349999999996 9.9644949999999959 6.4511979999999998 0.049329862975355354 -0.038368271168110368 0.75961398937988633
Te 12.93371 12.87214 9.5961610000000004 0.08426019814328356 0.62801605905679025 0.42758355539909587
Te 12.78712 16.496449999999999 13.51108 0.69241298056397227 -0.32784108491159714 -1.2650173948677548
Te 13.11617 19.592379999999999 16.6097 0.51849788839047051 0.26718192618136527 -0.24444624782245228
Te 13.040550000000001 23.159659999999999 19.976369999999999 0.25332680154861009 -0.27183520679022877 -0.41073846094150213
Te 16.264939999999999 9.9532670000000003 10.23873 0.69704640180813726 -0.25530894203239995 -0.56435018304546247
Te 16.158449999999998 12.993969999999999 12.93615 0.49374325673124986 0.4518555586569164 0.22527600468674791
Te 16.19623 16.086189999999998 16.45401 0.062598971238003287 0.78379589052929077 -0.32201566491676203
Te 16.342169999999999 19.919629999999998 19.944880000000001 0.28616302624629952 -0.001817381641785687 -0.30524156792262147
Te 16.576760000000007 23.180630000000008 23.219169999999998 -0.20836652949978429 -0.22049105559540294 -0.0061083523211209467
Te 19.727650000000004 9.6682350000000028 13.145870000000004 0.14838264469517526 0.75009083675809052 -0.17783339202856041
Te 19.515789999999999 13.15856 16.24165 0.3201048953397958 0.14436338811788119 0.078787142285705158
Te 19.42775 16.446080000000002 19.285679999999999 0.35700061583492015 0.068077269117111427 0.38875217670465645
Te 19.970980000000001 19.931380000000001 23.073820000000001 -0.37981495828262268 -0.47442116947422619 -0.23354024466061674
Te 19.599409999999995 22.826060000000002 26.187380000000001 -0.2309894655336393 0.20909857395326981 0.082786580667061571
Te 22.843769999999999 9.7425060000000023 16.557189999999999 0.44724364160629193 0.21549887240917087 -1.2300086542077224
Te 23.190120000000004 12.86294 19.807289999999998 -0.43404845053964891 0.28268192812811321 -0.25348844888662825
Te 22.984950000000005 16.599220000000006 22.50676 0.10334672033218339 -0.39769964550600889 0.61315446518597128
Te 23.0413 19.792950000000001 26.334420000000001 -0.18879571631168801 -0.22502246186127195 0.97876211889865772
Te 22.93291 23.028470000000006 29.41573 0.18818600774102379 -0.27950712561266755 -0.00054766138100603712
Te 13.493150000000004 13.296850000000003 3.1918470000000005 -0.49885162931605009 -0.089199341779476526 0.20447352755331849
Te 13.10399 16.892199999999999 6.7829360000000003 -0.018277935746311869 -0.34950513636522373 -0.21788693171583873
Te 13.17212 19.705929999999999 9.6665860000000006 0.17616165948052653 -0.0214863287848992 0.21561108774143434
Te 13.128410000000004 22.608640000000005 13.197920000000003 -0.22260873240462331 0.39459553155484173 0.14914311810616709
Te 13.43609 26.2835 16.268329999999999 -0.685668809443996 -0.25274478400024236 0.32089623457250127
Te 16.36711 13.35355 6.5551640000000013 0.10524546818385261 0.10364014155970835 -0.0728402941775812
Te 16.4587 16.886770000000002 9.4126799999999999 -0.47684851745316337 -0.83256104225247896 0.67826121774021431
Te 16.636990000000001 19.811129999999999 13.18397 -0.68235023368561087 -1.0515774785062604 -0.034683381459217344
Te 17.094410000000003 22.961670000000009 16.314959999999999 -1.0679296003036143 -0.1044200469573866 0.21183158378062217
Te 16.241219999999998 26.248699999999999 19.630759999999999 0.11126918029322042 -0.99409761146576159 0.15312567927372811
Te 19.817019999999999 13.228910000000001 9.6343189999999996 0.2057264068778295 -0.568913054439804 0.42001326832632913
Te 19.830180000000006 16.814500000000006 12.703889999999999 -0.32182924267544877 -0.58829984861768025 0.73687797272305033
Te 19.547110000000004 20.022820000000007 16.350819999999999 1.1885226334652543 -0.65151745497860247 0.18251822910315241
Te 19.658159999999999 23.098669999999998 19.49372 0.037953258416109747 -0.079141523719044926 0.61181761200668916
Te 19.591139999999999 26.402059999999995 23.015240000000006 1.1425675610213943 0.66846482453411227 0.064488877009637235
Te 22.996279999999999 13.073119999999996 13.29928 -0.56338641280535739 -0.43842099493849673 -0.25208555180165604
Te 22.689050000000002 16.594999999999999 16.137830000000001 0.18869731377344579 -0.12845788863819507 0.71943945253678976
Te 23.004320000000003 19.528950000000005 19.80219 -0.065538378772544092 0.25154179135461163 -0.42491154614936022
Te 22.809520000000003 22.914629999999995 22.51089 0.67937443166351841 0.83345803944712316 0.30894157673651534
Te 22.996659999999999 26.097750000000001 26.51839 -0.11612674961577341 -0.13024400672395586 -0.070618027016280394
Te 26.558009999999999 12.767180000000002 16.5486 -0.33305517029145904 0.46535707207215182 -0.30966157209581979
Te 26.289960000000001 16.13355 19.518889999999999 -0.14113753876017654 0.77145892698126772 0.80540821530303219
Te 26.441080000000003 19.83296 22.834720000000008 0.23372332339511104 -0.33919202532079851 0.11969066889378155
Te 26.369810000000001 23.066050000000001 25.864730000000002 -0.2325496465458059 -0.36447366131537251 0.74114495067829012
Te 26.33588 26.092449999999999 29.487069999999999 -0.44996142135129913 0.19032911869018054 -0.11456353069539005
Te 16.305810000000001 16.119800000000001 3.2070949999999998 0.14744095310109628 0.3432014057622883 -0.23121681417150342
Te 16.609080000000006 20.140570000000007 6.7069669999999997 0.073086759712168714 -0.2408346530610288 -0.45170238488958603
Te 16.738280000000007 23.159420000000011 9.9881630000000001 -0.44606641912514533 -0.053727767668533488 -0.21784494036364777
Te 16.00778 25.95506 12.68563 1.4114989604038328 0.4991093324120186 0.5893098739639413
Te 16.502870000000001 29.431900000000002 16.53595 -0.051315907573723507 0.047468866198528303 -0.073786509153478619
Te 19.64282 16.495540000000002 6.5363660000000019 0.10911530678563963 0.63087505959603618 -0.37065864864172227
Te 19.60305 19.7774 9.9393890000000003 0.60863013449251113 -0.015281409552343916 0.02916969087755561
Te 20.031850000000006 23.386470000000006 13.130929999999999 -0.29637725379166113 0.026145968267883291 0.19596157061596386
Te 19.567770000000003 26.267930000000007 16.2745 0.79064242476350444 0.3605866443897412 0.032102751251613881
Te 19.987919999999995 29.581670000000003 19.565719999999999 -0.19218249686673516 -0.22586579312337562 0.028440445250907942
Te 22.912220000000005 16.434059999999999 9.7697249999999993 -0.092198731806774958 -0.20926384839822276 0.50863351742327723
Te 22.91675 19.411430000000003 13.08919 0.037215834105609247 0.59896895636256886 -0.067013911208960053
Te 23.530069999999998 23.128689999999999 15.692460000000001 -0.016315355431288481 0.093821662634866243 1.8699106281419517
Te 22.702449999999999 26.289529999999999 19.968219999999999 0.37220312009594636 -0.27618207209161483 -0.36939836588317121
Te 22.730100000000004 29.632339999999999 23.085030000000007 0.72015950938458673 -0.10367845819894228 -0.15510436635776159
Te 26.292560000000002 16.310559999999999 13.17398 -0.17905756805384954 0.10165820194197295 0.2093255503018554
Te 26.05219 19.60529 16.22146 -0.24314763589859467 0.00085753054281667573 0.23553981011195901
Te 26.007630000000002 23.101610000000008 19.646529999999998 0.14471951794394045 -0.087741530211360441 -0.55822201312639663
Te 26.295269999999999 26.465340000000001 22.572839999999999 -0.11923623090842739 -0.17234061054261929 0.79637379691757815
Te 26.363120000000002 29.813180000000003 26.380930000000003 0.52152204169260585 -0.62209396652883697 -0.15333841193523767
Te 29.638390000000008 16.438560000000006 16.376159999999999 -0.28990848505191025 0.16117442637187196 0.41366329069478525
Te 29.707529999999998 19.9619 19.367550000000001 -0.27288955250537583 -0.12324964378694858 0.55164642591716984
Te 29.663680000000003 23.142969999999998 23.146560000000001 -0.0026664483766580815 0.14419212193206477 -0.3830374458427741
Te 29.688590000000005 26.233599999999999 26.581900000000008 -0.51437668725884578 0.018380898158739001 -1.4327090373763554
Te 29.717679999999994 29.434959999999993 29.523700000000002 -0.91333856881465181 -0.032247138539787557 0.29617443891493167
Pb 16.471139999999998 0.4236777000000001 16.570170000000001 -0.47433904443346364 -0.28345609426997953 -0.11650859579333428
Pb 0.15059920000000004 3.3317090000000009 3.4176180000000009 -0.07477367362497489 -0.56237774109128225 0.27123589691245797
Pb 0.36829519999999982 6.9086930000000004 6.8029159999999997 -0.23416967875255068 -0.14225077757009785 0.066199570277490238
Pb 16.463760000000008 10.02862 26.010180000000005 -0.16138652147014909 0.20332178635408127 0.30991302597385584
Pb 16.21912 29.381440000000001 13.39268 0.3941921246969855 0.071723992961779004 -0.39286978610653023
Pb 19.423570000000002 16.122919999999997 3.3330820000000001 0.17662589813153318 0.28462930756904825 0.15719090410766512
Pb 19.804189999999998 19.849489999999996 6.8391920000000015 0.038243482355937886 -0.29614130797244798 -0.3156034332936315
Pb 19.838719999999999 23.022590000000001 10.10324 0.17472024679011611 0.10308281538641495 -0.26121783339067406
Pb 2.7987110000000013 10.25272 12.68271 0.087299466103104351 -0.75158623145762249 0.29193249509262387
Pb 3.0834299999999994 13.159230000000001 15.95781 0.6722462310285664 -0.40206991131935865 1.1229151142688352
Pb 22.912240000000008 16.588420000000006 6.7986409999999999 0.1625209507608929 -0.044665320959211385 -0.3338268912100375
Pb 22.817010000000007 19.723750000000006 9.8970970000000005 0.084027455944635676 -0.2188333566438132 -0.023336825545356987
Pb 23.069040000000001 22.707060000000002 12.969620000000001 0.0064730397571111098 -0.12526897848874796 -1.6209351911912222
Pb 22.91337 26.15014 16.65898 -0.088087964611474945 0.47089743518526461 0.060245861403927847
Pb 6.8744170000000002 12.975180000000002 19.712350000000001 -0.28281718838070447 -0.24443729373115275 -0.103776514412246
Pb 26.045490000000001 16.468610000000002 10.12116 0.0099733971280784317 -0.11114192160934522 -0.36005162248147826
Pb 9.8430350000000004 3.2940360000000006 12.81705 -0.39301536871120302 -0.03478897164444561 0.64127917340636031
Pb 10.252459999999999 6.7025560000000004 16.273140000000001 0.1866836872204658 -0.11410526478067595 0.25607394453959387
Pb 25.869109999999999 26.353929999999998 19.524410000000007 -0.16171514051609392 0.01820190596458815 0.034197966035947047
Pb 10.140399999999998 13.257379999999999 22.97017 -0.79354967398376175 -0.049282709421248683 0.03242382893535023
Pb 13.042880000000004 0.20737200000000003 13.180270000000004 0.076759283518498478 -0.5590158631016493 0.48935114641693644
Pb 29.003630000000001 19.750630000000001 16.203469999999999 0.66054081148593013 0.018637346626469764 0.41068260036610127
Pb 29.045780000000001 23.203730000000004 19.659420000000001 0.64531166320523425 -0.39509094860250116 -0.20722612025066667
Pb 29.678520000000006 26.250680000000006 23.21341 -0.42355632198086823 0.10466905336670607 0.14783780968127758
Pb 29.741090000000007 29.460940000000008 26.475239999999999 0.14341945343199392 0.050144936328024414 -0.11536297953932717
Pb 3.4659510000000004 19.485239999999997 16.544619999999998 -0.021286570230586221 0.69283097725383413 0.036708924016011224
Pb 3.1656049999999993 6.1698660000000007 3.3531080000000006 0.32689636799477739 0.37854949219422451 -0.022805948117543551
Pb 3.3247849999999999 9.4987899999999961 6.4274849999999999 0.23011090433010395 0.92705805624746063 -0.33969772959790134
Pb 19.75686 13.33541 26.30086 -0.32871726726762063 -0.38745843338256236 -0.45069863589560555
Pb 3.2608939999999991 16.358820000000001 13.77251 0.16578084774897661 0.35308028700455907 -1.98733228440733
Pb 6.9686500000000011 19.632970000000004 19.722239999999999 -0.41445967871709399 -0.33776248010735799 -0.18101655307877706
Pb 6.534764 6.7598670000000007 6.5808429999999998 1.3695567404274698 0.11040093605197399 -0.80863624698872627
Pb 6.671526000000001 10.149490000000002 9.8430020000000003 0.0013091224012100611 -0.92500393795694436 -0.16477559686711629
Pb 6.8162820000000002 12.77251 12.93811 -0.31089132402598807 0.65898538864712464 0.5771669483531241
Pb 6.7192620000000005 16.004950000000008 16.907620000000001 -0.24507242037907417 0.15451593184116064 -0.44261633550047463
Pb 9.5737839999999998 3.2765650000000002 6.7534190000000001 0.66360518539659097 0.0086225116960463311 -0.66522311477956464
Pb 10.014240000000001 6.5993139999999997 10.079079999999999 -0.60101522012428177 0.2053144667252127 -0.19402024100327253
Pb 9.5880589999999994 9.7941490000000009 13.23024 0.2473698934713866 0.28367316061724068 -0.36901842688848774
Pb 9.9677229999999994 13.03467 16.43261 -0.98730349456559452 0.28296374820047276 -0.049486838738630468
Pb 9.8452059999999992 16.576039999999999 19.62049 -0.044021823634352586 -1.41833127496011 0.058777739531251427
Pb 12.843830000000001 3.0767670000000003 9.9516339999999985 0.51859997854870699 0.016568657613788673 -0.096375042223826313
Pb 13.588050000000001 6.8234649999999988 13.041110000000002 -0.92995411948322726 -0.5376484304006226 0.61175768443925449
Pb 13.28683 10.06864 16.57396 -0.35878906021935109 -0.41818388644333027 -0.15977094936079084
Pb 13.137980000000004 12.960000000000004 19.884300000000007 -0.24461066350667693 0.45635231070082227 -0.14316374700993606
Pb 13.007450000000002 16.537410000000001 23.223610000000001 0.048409122404336813 -0.030207306096144748 -0.0027616387596935965
Pb 16.50055 19.53585 29.622470000000007 -0.14180393721795781 0.21770148183725269 0.015181787623987475
Pb 16.90296 6.613087000000001 16.932480000000002 -0.74767503714519989 0.026936682680229751 -0.40769707730578375
Pb 16.071459999999998 10.220459999999999 19.600280000000001 1.0955633344957469 -0.10798731501880354 0.21033979716336093
Pb 16.341519999999999 13.257640000000004 22.861809999999998 0.31695300439739071 -0.22641957257516765 0.26615150502129836
Pb 16.379800000000003 16.776560000000007 26.559899999999999 -0.0030843219943790245 -0.61095936922305327 -1.0414704802219603
Pb 23.118829999999999 23.01951 32.739669999999997 -0.60324139297722468 -0.44267117097109576 0.42939293468771211
Pb 23.016400000000004 9.6637470000000025 19.469290000000001 0.31462093529080448 -0.060641492638296768 1.0604921171457136
Pb 6.6606040000000002 13.126480000000001 6.6279820000000003 -0.061033429484382395 0.16251140708067169 -0.5905883231257576
Pb 6.4276210000000003 16.28586 9.8929390000000001 -0.15201878307834704 0.56784550690203162 0.30082283960814493
Pb 22.909580000000002 19.993879999999997 29.686920000000001 0.20307221020766519 -1.0583941171851166 -0.044528088954393752
Pb 9.8262079999999994 22.782150000000009 19.643809999999998 0.078679169423025996 0.39790956494874763 0.18120637477431956
Pb 10.003220000000002 9.5019949999999991 7.0042430000000016 -0.12084923467864428 0.52754510874888183 -0.80575538417178905
Pb 9.7066739999999996 13.309710000000003 10.02183 0.42063174605982567 -1.0750142649126246 0.053587435417966844
Pb 9.6454760000000004 16.736219999999999 13.43491 -0.49195276639750318 -0.68003611174694356 -1.2219010559110757
Pb 9.9719300000000004 19.835530000000006 16.59385 0.48819532993132952 -0.85533218335569927 -0.2779624799516327
Pb 13.10553 6.4485289999999997 6.7569169999999996 -0.0694902471509522 1.1218612443872189 -0.18354005386169092
Pb 13.196009999999999 9.8372740000000007 9.6049009999999999 0.0058265160805603955 -0.2891385246189202 0.054805313911401754
Pb 13.10088 13.001299999999999 12.67615 -0.065010928524031897 0.061808967056094843 0.5590188568812664
Pb 12.786250000000001 16.355609999999999 16.526949999999999 0.70435894872423432 -0.029978602410437816 0.034639514046169495
Pb 13.10697 19.487219999999997 19.98199 0.66620076880201395 0.60006365979825205 -0.28008047416187765
Pb 16.118690000000001 6.7420690000000008 9.8718070000000004 0.2766342990321391 -0.088079981556376197 0.059877728640174155
Pb 15.918870000000002 9.4430439999999987 13.349420000000004 0.33518028690377832 1.0761087779724221 -0.054048866946459384
Pb 16.330680000000001 13.023799999999998 16.651390000000003 -0.040395939797349456 0.17254068265492606 -0.61848280910544418
Pb 16.288810000000002 16.655860000000001 19.879740000000002 -0.011942182434722781 0.30359563336060091 -0.0063405261298612459
Pb 16.630649999999992 19.816129999999994 23.150919999999999 0.12523257473549165 -0.01372113866296587 -0.023521273810274579
Pb 19.722809999999999 6.5911620000000024 13.204060000000002 -0.14765234448327647 -0.059190674275669153 -0.0057491117933068381
Pb 19.568300000000001 9.864079000000002 16.228290000000001 0.19598049911394355 0.17097246573723623 0.40078666116642125
Pb 19.895720000000001 12.924530000000001 19.768360000000001 0.093818578112646378 -0.13029717580548095 0.0089647786883233493
Pb 19.796749999999999 16.55528 22.619689999999999 -0.014553780235019076 0.10450650183611288 0.24358007588557484
Pb 19.63721 19.552219999999998 26.247669999999999 0.10397395589836833 -0.077263713691536395 0.0033180088162225729
Pb 9.8125739999999997 9.703303 0.1809424 0.15747004058312086 -0.11914053499594957 -0.10486884419242415
Pb 9.9957879999999992 13.094099999999999 3.3455980000000003 0.11449604195706797 -0.55515316416023097 -0.34719483883304747
Pb 26.13128 16.345569999999999 23.059539999999998 0.076538000816071872 -0.12220923336462874 -0.12163607716092883
Pb 10.135860000000001 19.237870000000001 9.7198400000000014 -0.32940241086089372 0.56128411753707041 0.23134051609986273
Pb 26.150480000000002 22.966080000000002 29.27835 0.34609676671152556 -0.31786632425837524 -0.093889316332933959
Pb 13.112830000000004 9.9492350000000034 3.543946 -0.37075316997686514 -0.00036235375242199552 -0.81485957249151397
Pb 13.11689 13.752280000000001 6.7422640000000014 0.42370158434187033 -0.08915277891446749 -0.71435602203905546
Pb 13.125629999999999 16.567200000000007 10.02238 0.11182010800261821 -0.084777357581515389 -0.21350506665851299
Pb 13.71818 19.500610000000002 13.352539999999999 -1.2279731975977484 0.24488926810562361 0.13455492104532141
Pb 13.019870000000001 23.027470000000005 16.629619999999999 0.18667879942609034 -0.011070303342023635 -0.059069324756478636
Pb 16.729520000000001 10.221669999999998 6.5983179999999999 -1.2096544479427394 -0.18394228863689932 -0.032522603030201935
Pb 16.807279999999999 12.952070000000001 9.7514880000000002 -0.50146056980929643 0.40014552503271261 0.13261801676708274
Pb 16.009080000000001 16.348469999999999 12.90175 0.34118779778873431 -0.51054950189046622 0.2591219903442834
Pb 16.728170000000006 19.733460000000008 16.75752 -1.4042243868043442 0.010517613821377836 -0.066583505933522247
Pb 16.499100000000006 23.080940000000005 20.260999999999999 -0.18626516773764479 0.0043744539068484301 -0.7726022009846929
Pb 19.633099999999999 25.889700000000001 26.539020000000004 -0.28477822426310695 0.46979860220062619 -0.44177275598394772
Pb 19.79365 13.305680000000002 12.957090000000003 -0.28500504706653373 0.18151896083782049 0.094361069805673381
Pb 19.332159999999998 16.6418 15.999879999999999 0.15227939639225951 -0.23714307848831595 -0.11476633640381806
Pb 19.568650000000002 19.816570000000002 19.824750000000002 0.39429505458916481 -0.011528887103558816 0.12023757102156196
Pb 19.842960000000005 23.48977 22.969390000000008 -0.39750777655854108 -0.8716038730050002 -0.19435515651900914
Pb 23.104369999999992 25.978939999999994 29.538789999999999 -0.13951047585260312 0.92902700651507075 0.68364153287870977
Pb 22.887889999999999 12.97927 16.51435 -0.090320783685456263 0.25583315944959395 0.010034564340458019
Pb 22.599920000000004 16.520489999999999 19.32695 0.14409803446915248 -0.2285229863987297 0.27169539148439981
Pb 23.386009999999999 20.166329999999999 23.50789 -0.31412838066535187 -1.0002653296621702 -1.3475078402138934
Pb 22.61355 22.951149999999998 26.129540000000006 0.50254251239357473 -0.32549243941932104 -0.21951759755239664
Pb 13.415390000000006 29.637909999999998 16.41939 -0.30096725517705636 -0.16387248772116436 0.073650566771561898
Pb 29.469220000000004 16.480819999999998 19.607600000000001 0.14800974033883563 0.041905310134438878 0.019841039880020617
Pb 29.994940000000007 20.115610000000007 22.67822 -0.55719883571873652 -0.29747187074667636 0.046028503522961728
Pb 13.049390000000001 22.93309 9.8971040000000006 0.18166345620790025 0.061865132802495282 0.040476623545373513
Pb 13.087460000000002 26.065100000000008 13.065420000000001 -0.62574182622086028 0.13379364672891825 1.175655349629551
Pb 16.62114 29.093560000000004 19.652270000000001 0.052872316857246915 1.3221009785356728 0.25008075384857875
Pb 16.433150000000001 16.828180000000003 6.2229350000000014 -0.21607410281154671 -0.25604256049591356 0.40558253326327076
Pb 16.59573 19.920960000000001 9.6965219999999999 -0.54946495974991194 0.26824024996108164 0.60246394960616101
Pb 16.280200000000001 22.78407 13.26779 -0.014982066346419742 0.63819793890797882 -0.027083713925094344
Pb 16.503450000000001 26.04562 15.8261 -0.29127737236709095 0.10985190212238649 0.2450841922818654
Pb 19.639209999999999 13.494879999999998 6.4578660000000001 -0.2102036607352602 -0.59791669134381209 -0.27041884582513376
Pb 19.537140000000001 16.251069999999999 9.6715120000000034 0.23990188759998432 0.31027649671413826 0.2236785306783986
Pb 19.422410000000003 20.322279999999999 13.217370000000003 1.6545338782153181 -0.34002497726692127 -0.2363566548798417
Pb 20.104790000000008 23.100400000000008 16.413599999999999 0.082866979549521602 0.38789333324757536 -0.12637500382061262
Pb 19.363510000000002 26.474209999999999 19.427029999999998 0.45991753549697023 -0.24843570678706328 0.10248583133193279
Pb 23.523470000000007 29.088430000000006 26.065169999999998 -0.72772495685239846 1.0320419226964077 0.36040702955290271
Pb 23.00029 16.196380000000001 13.2181 -0.072190033696529099 0.22991223630356217 -0.72576337066527685
Pb 22.802810000000008 20.103080000000006 16.118230000000001 0.34124015737342006 -0.65475665491430846 0.32715522563694321
Pb 22.88064 22.539290000000001 19.315650000000002 -0.10492756953465232 0.20976355463972141 0.28862464680855737
Pb 23.122340000000001 26.530240000000003 23.554480000000002 -0.004193559313989681 -0.23380840771464761 -1.4369447126034629
Pb 25.953530000000004 12.925489999999998 13.484820000000003 0.84532361356650654 0.16618147681754181 -0.39092589678307377
Pb 26.142250000000008 16.074820000000006 16.578859999999999 0.0056068347166728927 0.24790352633708146 -0.78320870184097657
Pb 26.600449999999999 19.41816 19.733339999999998 -0.37609495350216093 0.12786044246263373 -0.30343979107624364
Pb 26.225850000000008 22.908400000000007 22.716940000000001 0.12347269898691593 0.43021163201410673 0.26826086988830866
Pb 26.32996 26.052820000000001 26.20213 0.34705270137510524 0.31427185556799486 0.013792266310929335
