250
Time=0.00000000 pbc="T T T" Lattice="0 16.425979999999999 16.425979999999999 16.425979999999999 0 16.425979999999999 16.425979999999999 16.425979999999999 0" energy=-930.79387274384499 virial="31.640188546140784 0.69583966683736653 0.17448901914166637 0.69583966683736653 22.451398600018315 0.055396425702946672 0.17448901914166637 0.055396425702946672 33.147650914996419" stress="0.0035720661965230318 7.8588116646156019e-05 1.9733277917709752e-05 7.8588116646156019e-05 0.0025353502574889421 5.9392356135849958e-06 1.9733277917709752e-05 5.9392356135849958e-06 0.0037419800590579254" Properties=species:S:1:pos:R:3:forces:R:3
Te 3.2716189999999998 3.0938160000000003 3.3547220000000002 0.45565557680538404 -0.032308886924397484 -0.029708201607490992
Te 3.7261190000000002 6.5249110000000003 6.8534889999999997 -1.8016458546289869 -0.34054392731172811 -0.42819748866986629
Te 3.062335 9.854356000000001 9.655031000000001 0.93597571462623819 0.050781499333425018 -0.008374472898822205
Te 3.1132530000000003 13.23199 13.040230000000001 0.36060214598410312 0.31582858436468086 -0.5013903032113376
Te 3.1519380000000008 16.457460000000001 16.584530000000001 0.41837339390485795 -0.35797133103187662 1.0897019035312496
Te 6.6159699999999999 3.406539 6.5634800000000002 -0.46294300940985522 -0.31913333984380188 -0.11651240568818366
Te 6.8184190000000013 6.3967749999999999 9.4468980000000009 -0.16676277085207403 0.37405183177509116 1.3224401647203194
Te 6.5893600000000001 9.7508870000000041 13.120290000000004 -0.60178784727395396 -0.11039119898487115 -0.22524035609148996
Te 6.5091810000000025 12.90718 16.089600000000001 -0.038885228595518129 0.14952876982260932 0.52474151971910032
Te 6.7954590000000001 16.016390000000001 20.017959999999999 -0.48236183223571061 0.67872246873594122 -0.39281841282718233
Te 9.7995780000000003 3.2136849999999995 9.695748 -0.25008370526575163 0.29342093289517379 0.59947025984729407
Te 10.254480000000001 6.7464730000000026 13.232860000000002 -0.24573720819489608 -0.64472174788431857 -0.23154614875056723
Te 10.060309999999999 10.00271 16.2163 -0.24723780837530285 -0.78990891695332266 0.64540345944533328
Te 10.085390000000004 13.253180000000004 19.509650000000008 -0.31947761122910379 -0.26744617550684779 0.62285758253347012
Te 9.8405290000000019 16.498819999999995 22.827110000000001 0.089726042776021586 -0.1298495390167318 0.29252062260820821
Te 12.92435 3.2146459999999997 13.18038 0.58188646682538092 0.62469086217686254 -0.41187288330274896
Te 13.652540000000004 6.8085840000000015 16.380369999999999 -0.63548914501143372 -0.23195615557028759 0.12629591517065819
Te 13.19434 9.883289999999997 19.986440000000005 -0.65305003653975291 -0.054022448907744547 -0.42470488707840559
Te 13.083890000000004 13.272100000000004 23.07105 0.47618313732948536 0.011459513963927748 -0.028728422194490122
Te 12.940470000000001 16.238880000000002 26.645109999999999 0.32706138458888745 0.26369291950049956 -1.2887768604960002
Te 16.503850000000007 3.4843170000000008 16.891539999999999 0.28718068248367956 -0.20622987995241004 -1.3068817275575384
Te 16.426659999999998 6.3642389999999995 19.885280000000002 0.043460004544158437 0.68992378436723811 0.35887349618619169
Te 16.34348 10.029249999999999 22.965520000000001 0.26903390640211455 -0.28724438876270142 -0.6291083285032073
Te 16.665700000000001 13.239549999999999 26.682320000000001 -0.61261404303331801 -0.15768001928790909 -0.63054665506933816
Te 16.320709999999998 16.420750000000002 29.419699999999999 0.14959181961876311 -0.16345094755524769 1.3647430049013565
Te 6.6539929999999998 6.2003079999999997 3.3707400000000001 -0.15378908106447398 0.46934798859365401 -0.56460943597483038
Te 6.7152920000000007 9.8659420000000004 6.4586050000000013 -0.27260480596351044 0.22956869089176735 0.31481931321195589
Te 6.5227930000000018 13.166589999999998 9.7143139999999999 0.13169082425156375 0.10082491603316157 0.14832312345879473
Te 6.3765280000000004 16.382400000000001 13.20978 0.038989140921330545 0.064210891438051476 -0.27668353883200325
Te 7.0164439999999999 19.502510000000008 16.40108 -1.3241748836489933 -0.0033927663990880319 0.14470426722618868
Te 9.8430240000000015 6.4789010000000005 6.8153340000000018 0.36808807588670156 -0.15608600919904347 -0.51473167089056915
Te 10.09985 9.9367260000000002 9.9320419999999991 -0.78687447520906062 -0.26000778963702942 0.41131140936658994
Te 9.8333130000000022 13.132199999999997 13.307610000000002 -0.037748653088783612 0.026770692746140412 -0.84175860950199421
Te 9.7656759999999991 16.286360000000002 16.250859999999999 -0.43443831037802738 0.13470122586988964 1.2438224035158782
Te 10.14753 19.404949999999999 19.822980000000001 -0.88271966688398606 1.644469867052976 -0.025424285764074739
Te 13.034179999999999 6.3649019999999998 10.006729999999997 0.43420420233360346 0.091979567380803928 -0.25234979657648182
Te 12.841950000000002 9.8060690000000044 13.013000000000003 0.47433892117567211 0.32156145101544098 0.23607917442495818
Te 12.831860000000001 13.102969999999999 16.072980000000001 1.4042280974695132 0.24191350195883388 0.19314378900526208
Te 13.06883 16.510570000000001 19.53538 0.18389753006191967 -0.57174819042953828 1.0179490890617444
Te 13.305870000000001 20.001139999999999 23.132370000000002 0.015831537229587411 -1.4418324665784894 0.080215868627419695
Te 16.552600000000002 6.5782579999999999 12.95772 0.52613759918244796 -0.75196615275780232 0.31637016453399269
Te 16.45025 9.7814720000000008 16.461649999999999 -0.0048060423428069043 0.04077996605133194 0.20326933690330407
Te 16.178050000000002 13.617430000000002 19.712220000000002 0.51637079469946912 -1.1067403152701445 0.036850531309937651
Te 16.56738 16.199830000000006 23.10549 -0.23538850670479405 1.0841790409504029 -0.075056840467254915
Te 16.204640000000001 19.828770000000002 26.28801 0.29081849135354787 0.17310298397183033 0.46939443540304637
Te 19.855170000000005 6.6086170000000006 16.384470000000004 0.32211011621802754 -0.25121262993388882 0.18537520802055951
Te 20.017870000000006 9.7139690000000023 19.505100000000002 -1.0706385608282289 0.11326301938015604 0.33906345739251265
Te 19.522839999999999 12.790599999999998 22.91347 0.44969676425148464 0.47090133521851385 -0.018512708085836493
Te 19.685569999999998 16.33484 26.328610000000008 -0.15546892511156329 0.55680931022857294 -0.25164414154130554
Te 19.600169999999999 19.94678 29.521570000000008 0.10807037903623495 -0.83695676891147741 0.22186764109619617
Te 9.7521020000000007 9.631653 3.2161900000000001 0.44090744266213733 -0.12366055902543849 0.23287649986696124
Te 10.17266 13.127129999999999 6.2981290000000012 -0.82956231767360578 0.087644183498014172 0.97859425352271501
Te 9.6475690000000007 16.192209999999999 9.8459380000000003 0.44678970400036633 1.0389398294146304 -0.13782760647018222
Te 9.7391649999999998 19.622420000000009 12.963100000000001 0.072694835608672292 0.79436214065624711 -0.008551945575618447
Te 9.6680869999999999 22.734050000000007 16.223600000000001 0.97212763727685569 0.89037077579757806 0.047082791020784498
Te 13.150349999999996 9.9644949999999959 6.4511979999999998 0.053130934561977483 -0.063502525584226532 0.80726979823725742
Te 12.93371 12.87214 9.5961610000000004 0.095985438601559281 0.6272575651482839 0.46620285781060034
Te 12.78712 16.496449999999999 13.51108 0.67297095904723392 -0.31267663634571363 -1.2497840696287312
Te 13.11617 19.592379999999999 16.6097 0.4943645187194079 0.23987070018438317 -0.27991783404547732
Te 13.040550000000001 23.159659999999999 19.976369999999999 0.24611906745667511 -0.27778108493612308 -0.40726409160970434
Te 16.264939999999999 9.9532670000000003 10.23873 0.67640834097414881 -0.29870159534516461 -0.55850464621835272
Te 16.158449999999998 12.993969999999999 12.93615 0.46147936869328987 0.39505307743911544 0.28282806756487844
Te 16.19623 16.086189999999998 16.45401 0.057984481449238956 0.77035710971540539 -0.38744834490944413
Te 16.342169999999999 19.919629999999998 19.944880000000001 0.29721721910900101 0.0072161279458669014 -0.30320379298416356
Te 16.576760000000007 23.180630000000008 23.219169999999998 -0.21678429328699167 -0.21073571087435994 0.036035397700516114
Te 19.727650000000004 9.6682350000000028 13.145870000000004 0.086317043948838545 0.77441372850034895 -0.17511292184735794
Te 19.515789999999999 13.15856 16.24165 0.29527229986592829 0.12973821820878584 0.060287931484708679
Te 19.42775 16.446080000000002 19.285679999999999 0.32665926841679038 0.099918314601382008 0.39121123274469483
Te 19.970980000000001 19.931380000000001 23.073820000000001 -0.36487082624717004 -0.48845120974510792 -0.22629680642921812
Te 19.599409999999995 22.826060000000002 26.187380000000001 -0.23811344495902631 0.20220964350482973 0.088636405707120502
Te 22.843769999999999 9.7425060000000023 16.557189999999999 0.42789828462264268 0.20370060036748328 -1.2225841471199601
Te 23.190120000000004 12.86294 19.807289999999998 -0.42949099988800299 0.26863240415286782 -0.28626982262926504
Te 22.984950000000005 16.599220000000006 22.50676 0.12167065864533555 -0.36529775988580582 0.63722300504423401
Te 23.0413 19.792950000000001 26.334420000000001 -0.21299863168496813 -0.26224124975283303 1.0228548335580854
Te 22.93291 23.028470000000006 29.41573 0.15366217839346064 -0.26002553739851919 -0.046786355709627969
Te 13.493150000000004 13.296850000000003 3.1918470000000005 -0.46885473270413058 -0.11651180809349171 0.19591685594730279
Te 13.10399 16.892199999999999 6.7829360000000003 -0.016856834842428725 -0.32615652989488808 -0.23682385115216675
Te 13.17212 19.705929999999999 9.6665860000000006 0.15122703273928551 -0.008839072116643365 0.24698823149932991
Te 13.128410000000004 22.608640000000005 13.197920000000003 -0.22558349976975478 0.39299157809728058 0.13597654392879122
Te 13.43609 26.2835 16.268329999999999 -0.66501635178974539 -0.26260971766714647 0.31353348518314306
Te 16.36711 13.35355 6.5551640000000013 0.11900944166518457 0.092731007166094059 -0.0714182969477406
Te 16.4587 16.886770000000002 9.4126799999999999 -0.50643383048009127 -0.82239750157191338 0.7015713666778538
Te 16.636990000000001 19.811129999999999 13.18397 -0.75727516639607728 -1.0853017984097946 -0.043298134073779693
Te 17.094410000000003 22.961670000000009 16.314959999999999 -1.0803021910414827 -0.10266912529104388 0.16772654394935671
Te 16.241219999999998 26.248699999999999 19.630759999999999 0.1043324078536898 -0.99593528436525958 0.16208728564606645
Te 19.817019999999999 13.228910000000001 9.6343189999999996 0.2199317314371001 -0.58900785025616642 0.38363042817763926
Te 19.830180000000006 16.814500000000006 12.703889999999999 -0.34198304488572262 -0.64667577940690535 0.73325878069954342
Te 19.547110000000004 20.022820000000007 16.350819999999999 1.1461004962402512 -0.66463270142412512 0.18814358707231804
Te 19.658159999999999 23.098669999999998 19.49372 0.044542834129458697 -0.054334250982037702 0.63735794191700279
Te 19.591139999999999 26.402059999999995 23.015240000000006 1.1545993655852271 0.71683908339673508 0.064832480424229288
Te 22.996279999999999 13.073119999999996 13.29928 -0.57924138998856733 -0.48191362256852699 -0.29050430699874141
Te 22.689050000000002 16.594999999999999 16.137830000000001 0.17149374043583521 -0.1494395793229728 0.70429276013237541
Te 23.004320000000003 19.528950000000005 19.80219 -0.077835398445550652 0.24579927100583632 -0.39683970465512175
Te 22.809520000000003 22.914629999999995 22.51089 0.70215451132003182 0.81724362112208837 0.30598793117678724
Te 22.996659999999999 26.097750000000001 26.51839 -0.078713628507898648 -0.1372207004487791 0.0025592546280677198
Te 26.558009999999999 12.767180000000002 16.5486 -0.34982057905745023 0.43744789387528726 -0.32003269030656156
Te 26.289960000000001 16.13355 19.518889999999999 -0.12575171844218858 0.79546981911335024 0.82609991431309027
Te 26.441080000000003 19.83296 22.834720000000008 0.26021729219792178 -0.33830437021106263 0.1214380861929385
Te 26.369810000000001 23.066050000000001 25.864730000000002 -0.24023095834695596 -0.36960762242324563 0.69393699411375565
Te 26.33588 26.092449999999999 29.487069999999999 -0.49910375773288251 0.17892213371101207 -0.12804823048259095
Te 16.305810000000001 16.119800000000001 3.2070949999999998 0.17609850212011224 0.33372515879091225 -0.24116992042908691
Te 16.609080000000006 20.140570000000007 6.7069669999999997 0.088571581370160857 -0.22625169448747329 -0.46500992585288259
Te 16.738280000000007 23.159420000000011 9.9881630000000001 -0.46363054637663481 -0.00099035991297569126 -0.21690741535167035
Te 16.00778 25.95506 12.68563 1.3864531651161087 0.51506173320603921 0.60526730613446489
Te 16.502870000000001 29.431900000000002 16.53595 0.0020054648455101187 0.020662864454152441 -0.11145780964034202
Te 19.64282 16.495540000000002 6.5363660000000019 0.10893108056106371 0.61970142319000843 -0.3561910824536767
Te 19.60305 19.7774 9.9393890000000003 0.59216589480547555 -0.0071633358597864571 -0.0080637150476832176
Te 20.031850000000006 23.386470000000006 13.130929999999999 -0.3352140489246267 -0.021491625503585965 0.19599044006463373
Te 19.567770000000003 26.267930000000007 16.2745 0.75030916276075743 0.39079965149505824 0.033119669062870116
Te 19.987919999999995 29.581670000000003 19.565719999999999 -0.20203379388021858 -0.23356509799850755 0.018048432921204949
Te 22.912220000000005 16.434059999999999 9.7697249999999993 -0.056808347531195125 -0.19302483792989733 0.48942781038471139
Te 22.91675 19.411430000000003 13.08919 0.096881626334123894 0.58343740107932263 -0.080103423000537077
Te 23.530069999999998 23.128689999999999 15.692460000000001 -0.055104545350332046 0.07244866951612039 2.0832715053111315
Te 22.702449999999999 26.289529999999999 19.968219999999999 0.34700759905354062 -0.26141112846607939 -0.35457119474995125
Te 22.730100000000004 29.632339999999999 23.085030000000007 0.73473814430781204 -0.13718964563713598 -0.14138892248456614
Te 26.292560000000002 16.310559999999999 13.17398 -0.17523185888330772 0.10230173026047851 0.19216278191856873
Te 26.05219 19.60529 16.22146 -0.23896816887508976 0.0023605280312040122 0.23918896930376832
Te 26.007630000000002 23.101610000000008 19.646529999999998 0.10979045381191099 -0.10193176362508893 -0.55430091398011427
Te 26.295269999999999 26.465340000000001 22.572839999999999 -0.12945072776847155 -0.15642674761920716 0.79463390727323713
Te 26.363120000000002 29.813180000000003 26.380930000000003 0.46123900371799209 -0.62720595044083893 -0.17660318341359016
Te 29.638390000000008 16.438560000000006 16.376159999999999 -0.287258614014263 0.18428774100993905 0.40293269959033751
Te 29.707529999999998 19.9619 19.367550000000001 -0.24541366088465111 -0.15268974144782987 0.5651997311397281
Te 29.663680000000003 23.142969999999998 23.146560000000001 -0.017489293305061437 0.12552781640965804 -0.37534822782345145
Te 29.688590000000005 26.233599999999999 26.581900000000008 -0.52980607859080919 0.014863672568935726 -1.429946075109001
Te 29.717679999999994 29.434959999999993 29.523700000000002 -0.87294010249843268 -0.047682744854228076 0.2649051905491433
Pb 16.471139999999998 0.4236777000000001 16.570170000000001 -0.51208923315971333 -0.28160093099813821 -0.10957832789199529
Pb 0.15059920000000004 3.3317090000000009 3.4176180000000009 -0.097857727797418192 -0.54360900276151369 0.29618354865760921
Pb 0.36829519999999982 6.9086930000000004 6.8029159999999997 -0.1988452966161276 -0.19928138125669648 0.05650692831068227
Pb 16.463760000000008 10.02862 26.010180000000005 -0.17448086793410766 0.20736157222063412 0.33807255145802628
Pb 16.21912 29.381440000000001 13.39268 0.38442848494605641 0.01127320907653484 -0.37306117653497495
Pb 19.423570000000002 16.122919999999997 3.3330820000000001 0.12998891896859277 0.30801127613085555 0.1596693849719486
Pb 19.804189999999998 19.849489999999996 6.8391920000000015 0.047727565224363389 -0.26646200526192843 -0.29241393980873909
Pb 19.838719999999999 23.022590000000001 10.10324 0.19783169642104781 0.084133434958403086 -0.24843469435290899
Pb 2.7987110000000013 10.25272 12.68271 0.063075856010982534 -0.77331145813877811 0.29320381452635047
Pb 3.0834299999999994 13.159230000000001 15.95781 0.67281793249730981 -0.37736882076205802 1.1459937690797233
Pb 22.912240000000008 16.588420000000006 6.7986409999999999 0.14195108437548498 -0.029941240063635632 -0.33726804850721237
Pb 22.817010000000007 19.723750000000006 9.8970970000000005 0.062858778884333333 -0.19996093899317202 -0.015527873152223037
Pb 23.069040000000001 22.707060000000002 12.969620000000001 -0.012746543688194834 -0.1207906266736245 -1.6997104136135022
Pb 22.91337 26.15014 16.65898 -0.1021693990379049 0.43102111013467947 0.047808186016482068
Pb 6.8744170000000002 12.975180000000002 19.712350000000001 -0.28352374746827991 -0.26818570016894228 -0.076407015872518969
Pb 26.045490000000001 16.468610000000002 10.12116 0.032903299239933403 -0.13342777526668215 -0.34408838845774881
Pb 9.8430350000000004 3.2940360000000006 12.81705 -0.44937493426703945 -0.045795295211064513 0.65396993518879754
Pb 10.252459999999999 6.7025560000000004 16.273140000000001 0.13061608363750565 -0.12956414499171842 0.24376031724025893
Pb 25.869109999999999 26.353929999999998 19.524410000000007 -0.15309190248080995 -0.0096639483190301689 0.072895873672450762
Pb 10.140399999999998 13.257379999999999 22.97017 -0.80652314815370119 -0.052367642454186125 0.027421345463835678
Pb 13.042880000000004 0.20737200000000003 13.180270000000004 0.065616598236786672 -0.5929567370985751 0.5050578019513523
Pb 29.003630000000001 19.750630000000001 16.203469999999999 0.62983090552734211 0.022202899805073173 0.39516740556382501
Pb 29.045780000000001 23.203730000000004 19.659420000000001 0.61390096003924555 -0.41747355690586119 -0.15511448184636834
Pb 29.678520000000006 26.250680000000006 23.21341 -0.41698472047119139 0.14791326359591039 0.13502833818984072
Pb 29.741090000000007 29.460940000000008 26.475239999999999 0.1312061862874998 0.035244827880887897 -0.11426347049200558
Pb 3.4659510000000004 19.485239999999997 16.544619999999998 -0.043536956156117412 0.71771569380121036 0.060341603220877005
Pb 3.1656049999999993 6.1698660000000007 3.3531080000000006 0.36354916623645295 0.36193761704021199 0.026972029379749074
Pb 3.3247849999999999 9.4987899999999961 6.4274849999999999 0.24826668705100019 0.93842946188738097 -0.33388061314690276
Pb 19.75686 13.33541 26.30086 -0.34907549980198382 -0.38283302254785667 -0.45304140542248206
Pb 3.2608939999999991 16.358820000000001 13.77251 0.17186319415304752 0.3516931693375227 -1.9798462829057826
Pb 6.9686500000000011 19.632970000000004 19.722239999999999 -0.41144241180154495 -0.32279360809957325 -0.11424733653439034
Pb 6.534764 6.7598670000000007 6.5808429999999998 1.3477068626943947 0.096494894436091272 -0.81952815384738642
Pb 6.671526000000001 10.149490000000002 9.8430020000000003 -0.014737406946551346 -0.97494704524433473 -0.1695850828419907
Pb 6.8162820000000002 12.77251 12.93811 -0.33485657158780668 0.59297241103013221 0.57244596921736957
Pb 6.7192620000000005 16.004950000000008 16.907620000000001 -0.220810130027985 0.134988997488108 -0.42607312629024818
Pb 9.5737839999999998 3.2765650000000002 6.7534190000000001 0.63414115576961194 0.029236643198601087 -0.62991143473391276
Pb 10.014240000000001 6.5993139999999997 10.079079999999999 -0.61709703124522264 0.17312285222624268 -0.23168985606662318
Pb 9.5880589999999994 9.7941490000000009 13.23024 0.22735092477614671 0.24487149570541078 -0.32462780986952566
Pb 9.9677229999999994 13.03467 16.43261 -0.98063999406349467 0.29001824240731366 -0.035761747565175028
Pb 9.8452059999999992 16.576039999999999 19.62049 -0.042373417260478163 -1.3771496011549971 0.06783725963418874
Pb 12.843830000000001 3.0767670000000003 9.9516339999999985 0.50600748773570103 0.044619061254707049 -0.13979374599421135
Pb 13.588050000000001 6.8234649999999988 13.041110000000002 -1.0362892419943819 -0.55361807161352772 0.5283160767339723
Pb 13.28683 10.06864 16.57396 -0.4012747849067182 -0.40104775093823264 -0.14597883066380746
Pb 13.137980000000004 12.960000000000004 19.884300000000007 -0.21575138419166251 0.49298857093526749 -0.085986330893632612
Pb 13.007450000000002 16.537410000000001 23.223610000000001 0.10346246910785339 -0.030456682112799172 0.015183738401219671
Pb 16.50055 19.53585 29.622470000000007 -0.15429079481140207 0.22190743245437261 0.021351821699227003
Pb 16.90296 6.613087000000001 16.932480000000002 -0.72597769023195724 -0.019233711736490022 -0.31553666940453695
Pb 16.071459999999998 10.220459999999999 19.600280000000001 1.0581575244552823 -0.10460853074664556 0.25373320436926861
Pb 16.341519999999999 13.257640000000004 22.861809999999998 0.31758426856393385 -0.18188445366232031 0.25406451758226467
Pb 16.379800000000003 16.776560000000007 26.559899999999999 -0.0067301472190592904 -0.61761802388718934 -1.0866431914355417
Pb 23.118829999999999 23.01951 32.739669999999997 -0.5896797851928568 -0.41201882279847268 0.42030070927012275
Pb 23.016400000000004 9.6637470000000025 19.469290000000001 0.3574678118943666 -0.064395293058396419 1.1390888127061771
Pb 6.6606040000000002 13.126480000000001 6.6279820000000003 -0.088345523682278326 0.11964001066326091 -0.65699408299133211
Pb 6.4276210000000003 16.28586 9.8929390000000001 -0.16575260332592734 0.59618118079140459 0.31412308460494387
Pb 22.909580000000002 19.993879999999997 29.686920000000001 0.2011250761474912 -1.0249355909145379 -0.047487802459727391
Pb 9.8262079999999994 22.782150000000009 19.643809999999998 0.084148091119089941 0.37668632474091623 0.19874571940761143
Pb 10.003220000000002 9.5019949999999991 7.0042430000000016 -0.10558947047486811 0.50496060408408994 -0.83381018587897415
Pb 9.7066739999999996 13.309710000000003 10.02183 0.47111621577414553 -1.1216033636433167 0.061653305184336205
Pb 9.6454760000000004 16.736219999999999 13.43491 -0.49196392741760064 -0.65410565082356698 -1.1347666302608559
Pb 9.9719300000000004 19.835530000000006 16.59385 0.51713999011704459 -0.88679409820747424 -0.25778688618834167
Pb 13.10553 6.4485289999999997 6.7569169999999996 -0.042742766940136789 1.1563055604538022 -0.21121625666819455
Pb 13.196009999999999 9.8372740000000007 9.6049009999999999 -0.014368333871971117 -0.28959599333666119 0.056011397231486626
Pb 13.10088 13.001299999999999 12.67615 -0.049447659924908294 0.081799630831710601 0.4965387324502899
Pb 12.786250000000001 16.355609999999999 16.526949999999999 0.64765321360391681 -0.026483523528440855 0.11892495896609034
Pb 13.10697 19.487219999999997 19.98199 0.64329004253795574 0.61904234060602903 -0.25255116481264395
Pb 16.118690000000001 6.7420690000000008 9.8718070000000004 0.25719909531289886 -0.10692090707925672 0.014463954579241545
Pb 15.918870000000002 9.4430439999999987 13.349420000000004 0.30137374900732539 1.140752150931803 -0.088357498501864029
Pb 16.330680000000001 13.023799999999998 16.651390000000003 0.0010697080733734765 0.244151464139577 -0.58387961051266757
Pb 16.288810000000002 16.655860000000001 19.879740000000002 -0.026434963094288833 0.27345753405097639 -0.0076047414158892934
Pb 16.630649999999992 19.816129999999994 23.150919999999999 0.099052620737893449 0.0043550280323643165 -0.025109868120125611
Pb 19.722809999999999 6.5911620000000024 13.204060000000002 -0.11163105617379188 -0.10201983902516076 -0.0047133038185620535
Pb 19.568300000000001 9.864079000000002 16.228290000000001 0.25891274150126264 0.17750975227153276 0.43661153132620711
Pb 19.895720000000001 12.924530000000001 19.768360000000001 0.11333277339417691 -0.13203091023001434 0.01156165344832516
Pb 19.796749999999999 16.55528 22.619689999999999 -0.070273584202368511 0.061966392568365336 0.2548401446592834
Pb 19.63721 19.552219999999998 26.247669999999999 0.11420950009392072 -0.083539991443785766 0.038711374086233263
Pb 9.8125739999999997 9.703303 0.1809424 0.1905285170823845 -0.095161814454058913 -0.12272921552778371
Pb 9.9957879999999992 13.094099999999999 3.3455980000000003 0.085749151545314817 -0.5719889783704275 -0.34768028618941571
Pb 26.13128 16.345569999999999 23.059539999999998 0.08714371646941288 -0.1424010154375992 -0.14259076420376005
Pb 10.135860000000001 19.237870000000001 9.7198400000000014 -0.31628908284710633 0.57772521535116539 0.25123599394601115
Pb 26.150480000000002 22.966080000000002 29.27835 0.37607527636259874 -0.30250051883467677 -0.085517166582576465
Pb 13.112830000000004 9.9492350000000034 3.543946 -0.38352779200045006 0.0013099307973334362 -0.86609536664673215
Pb 13.11689 13.752280000000001 6.7422640000000014 0.42537130591335881 -0.061513356049545109 -0.73914833964067839
Pb 13.125629999999999 16.567200000000007 10.02238 0.13864270527221834 -0.10189199202773125 -0.28452466138355703
Pb 13.71818 19.500610000000002 13.352539999999999 -1.1401718300476205 0.31249071988058574 0.14259377465737089
Pb 13.019870000000001 23.027470000000005 16.629619999999999 0.18164352093390335 0.014183614119815502 -0.048006078473463276
Pb 16.729520000000001 10.221669999999998 6.5983179999999999 -1.2953585131617729 -0.17462433776563557 -0.038449040934210643
Pb 16.807279999999999 12.952070000000001 9.7514880000000002 -0.49659241159679368 0.42252565180751844 0.10611220704504376
Pb 16.009080000000001 16.348469999999999 12.90175 0.39946266113202 -0.46831061383454653 0.23401225694396999
Pb 16.728170000000006 19.733460000000008 16.75752 -1.3731310580262743 0.019096673606327386 -0.068470233698462835
Pb 16.499100000000006 23.080940000000005 20.260999999999999 -0.23132232616126203 0.02222090557552292 -0.72052547004568623
Pb 19.633099999999999 25.889700000000001 26.539020000000004 -0.27643494555999837 0.47384738772234414 -0.46247312813102326
Pb 19.79365 13.305680000000002 12.957090000000003 -0.26856435244098975 0.23481791105109551 0.11048173948094586
Pb 19.332159999999998 16.6418 15.999879999999999 0.18908739001199137 -0.24265409760391776 -0.082678068944460392
Pb 19.568650000000002 19.816570000000002 19.824750000000002 0.39195328670432161 -0.018613038297587536 0.065391198801762584
Pb 19.842960000000005 23.48977 22.969390000000008 -0.39036870527888823 -0.88936151535381214 -0.19867958055704094
Pb 23.104369999999992 25.978939999999994 29.538789999999999 -0.1115094056272028 0.93323463975502818 0.71482076086454072
Pb 22.887889999999999 12.97927 16.51435 -0.10288049465907534 0.27582842086803794 0.044390159442627919
Pb 22.599920000000004 16.520489999999999 19.32695 0.14089677063020645 -0.31130470015705214 0.21764138833805191
Pb 23.386009999999999 20.166329999999999 23.50789 -0.33458760291614453 -0.92086870779894525 -1.3053263818983396
Pb 22.61355 22.951149999999998 26.129540000000006 0.51671392782736802 -0.35810770227578814 -0.1996895495217359
Pb 13.415390000000006 29.637909999999998 16.41939 -0.33808506176501396 -0.12393851793058275 0.10584717733490834
Pb 29.469220000000004 16.480819999999998 19.607600000000001 0.15887826621523971 0.044806955570948048 0.029287184490840446
Pb 29.994940000000007 20.115610000000007 22.67822 -0.54892702706092678 -0.31163632765310467 0.040459974326040538
Pb 13.049390000000001 22.93309 9.8971040000000006 0.16411550997872837 0.036781723469516692 0.095723131989871035
Pb 13.087460000000002 26.065100000000008 13.065420000000001 -0.59203255449301651 0.095070307655532815 1.188923793882168
Pb 16.62114 29.093560000000004 19.652270000000001 0.069011549907372682 1.3407334027033357 0.27537828933645869
Pb 16.433150000000001 16.828180000000003 6.2229350000000014 -0.20881865543174172 -0.24237105892007094 0.43642838224695879
Pb 16.59573 19.920960000000001 9.6965219999999999 -0.51264362019719556 0.17341101259262359 0.59763354061533391
Pb 16.280200000000001 22.78407 13.26779 0.0037350474594859406 0.65342999256279199 0.0020926586935274827
Pb 16.503450000000001 26.04562 15.8261 -0.29165084441478939 0.093421853347763317 0.22030957541574026
Pb 19.639209999999999 13.494879999999998 6.4578660000000001 -0.1743396833553561 -0.62695780370268039 -0.27894020620828996
Pb 19.537140000000001 16.251069999999999 9.6715120000000034 0.21230873079184676 0.35645452596827454 0.22821630761018241
Pb 19.422410000000003 20.322279999999999 13.217370000000003 1.6486103475658638 -0.27134349344942166 -0.20393793005632688
Pb 20.104790000000008 23.100400000000008 16.413599999999999 0.11353033762497944 0.39303084695416146 -0.19297086159713217
Pb 19.363510000000002 26.474209999999999 19.427029999999998 0.43152965151239187 -0.2508851227012201 0.063637721537816105
Pb 23.523470000000007 29.088430000000006 26.065169999999998 -0.6756945619781618 1.0660235451496192 0.36780102791271929
Pb 23.00029 16.196380000000001 13.2181 -0.097649527404655601 0.31057055541168666 -0.71467845040865541
Pb 22.802810000000008 20.103080000000006 16.118230000000001 0.34152203586586438 -0.66919649341980403 0.2742746046233151
Pb 22.88064 22.539290000000001 19.315650000000002 -0.092468755397021596 0.23062204311645473 0.18538568575604586
Pb 23.122340000000001 26.530240000000003 23.554480000000002 -0.021991287332184584 -0.19958644197595277 -1.4526370675603175
Pb 25.953530000000004 12.925489999999998 13.484820000000003 0.88434070849689306 0.18345372000203497 -0.36319843773298999
Pb 26.142250000000008 16.074820000000006 16.578859999999999 -0.010812579605712358 0.22659821696720428 -0.80986219517671998
Pb 26.600449999999999 19.41816 19.733339999999998 -0.3806976291662636 0.1429379565487352 -0.34502188495662267
Pb 26.225850000000008 22.908400000000007 22.716940000000001 0.1066968776090107 0.45968197000001965 0.24985893571829365
Pb 26.32996 26.052820000000001 26.20213 0.38210738667748956 0.34400231131940018 -0.01182977771526339
